(set-info :source |printed by MathSAT|)
(declare-fun |.x{438}| () Int)
(declare-fun |.x{861}| () Int)
(declare-fun |.x{439}| () Int)
(declare-fun |.x{862}| () Int)
(declare-fun |.x{440}| () Int)
(declare-fun |.x{863}| () Int)
(declare-fun |.x{441}| () Int)
(declare-fun |.x{864}| () Int)
(declare-fun |.x{442}| () Int)
(declare-fun |.x{865}| () Int)
(declare-fun |.x{443}| () Int)
(declare-fun |.x{866}| () Int)
(declare-fun |.x{444}| () Int)
(declare-fun |.x{867}| () Int)
(declare-fun |.x{445}| () Int)
(declare-fun |.x{868}| () Int)
(declare-fun |.x{446}| () Int)
(declare-fun |.x{869}| () Int)
(declare-fun |.x{447}| () Int)
(declare-fun |.x{870}| () Int)
(declare-fun |.x{448}| () Int)
(declare-fun |.x{871}| () Int)
(declare-fun |.x{449}| () Int)
(declare-fun |.x{872}| () Int)
(declare-fun |.x{450}| () Int)
(declare-fun |.x{873}| () Int)
(declare-fun |.x{451}| () Int)
(declare-fun |.x{874}| () Int)
(declare-fun |.x{452}| () Int)
(declare-fun |.x{875}| () Int)
(declare-fun |.x{453}| () Int)
(declare-fun |.x{876}| () Int)
(declare-fun |.x{454}| () Int)
(declare-fun |.x{877}| () Int)
(declare-fun |.x{455}| () Int)
(declare-fun |.x{878}| () Int)
(declare-fun |.x{456}| () Int)
(declare-fun |.x{879}| () Int)
(declare-fun |.x{457}| () (Array Int Int))
(declare-fun |.x{880}| () (Array Int Int))
(declare-fun |.x{458}| () (Array Int Int))
(declare-fun |.x{881}| () (Array Int Int))
(declare-fun |.x{498}| () (Array Int (Array Int Int)))
(declare-fun |.x{882}| () (Array Int (Array Int Int)))
(declare-fun |.x{460}| () (Array Int (Array Int Int)))
(declare-fun |.x{883}| () (Array Int (Array Int Int)))
(declare-fun |.x{461}| () Int)
(declare-fun |.x{884}| () Int)
(declare-fun |.x{462}| () Int)
(declare-fun |.x{885}| () Int)
(declare-fun |.x{463}| () (Array Int Int))
(declare-fun |.x{886}| () (Array Int Int))
(declare-fun |.x{464}| () (Array Int Int))
(declare-fun |.x{887}| () (Array Int Int))
(declare-fun |.x{465}| () Int)
(declare-fun |.x{888}| () Int)
(declare-fun |.x{466}| () Int)
(declare-fun |.x{889}| () Int)
(declare-fun |.x{467}| () Int)
(declare-fun |.x{890}| () Int)
(declare-fun |.x{468}| () Int)
(declare-fun |.x{891}| () Int)
(declare-fun |.x{469}| () Int)
(declare-fun |.x{892}| () Int)
(declare-fun |.x{470}| () Int)
(declare-fun |.x{893}| () Int)
(declare-fun |.x{510}| () Int)
(declare-fun |.x{894}| () Int)
(declare-fun |.x{511}| () Int)
(declare-fun |.x{895}| () Int)
(declare-fun |.x{473}| () Int)
(declare-fun |.x{896}| () Int)
(declare-fun |.x{474}| () Int)
(declare-fun |.x{897}| () Int)
(declare-fun |.x{475}| () Int)
(declare-fun |.x{898}| () Int)
(declare-fun |.x{476}| () Bool)
(declare-fun |.x{821}| () Bool)
(declare-fun |.loc{3}| () Bool)
(declare-fun |.loc{5}| () Bool)
(declare-fun |.loc{4}| () Bool)
(declare-fun |.loc{6}| () Bool)
(declare-fun |.x{247}| () Int)
(declare-fun |.x{160}| () Int)
(declare-fun |.x{155}| () Int)
(declare-fun |.x{158}| () Int)
(declare-fun |.x{257}| () Int)
(declare-fun |.x{625}| () Int)
(define-fun .def_86 () Bool (! |.loc{3}| :next |.loc{5}|))
(define-fun .def_186 () Bool (not .def_86))
(define-fun .def_88 () Bool (! |.loc{4}| :next |.loc{6}|))
(define-fun .def_183 () Bool (not .def_88))
(define-fun .def_404 () Bool (and .def_183 .def_186))
(define-fun .def_48 () (Array Int Int) (! |.x{458}| :next |.x{881}|))
(define-fun .def_46 () (Array Int Int) (! |.x{457}| :next |.x{880}|))
(define-fun .def_390 () Bool (= .def_46 .def_48))
(define-fun .def_56 () Int (! |.x{462}| :next |.x{885}|))
(define-fun .def_54 () Int (! |.x{461}| :next |.x{884}|))
(define-fun .def_389 () Bool (= .def_54 .def_56))
(define-fun .def_391 () Bool (and .def_389 .def_390))
(define-fun .def_10 () Int (! |.x{439}| :next |.x{862}|))
(define-fun .def_8 () Int (! |.x{438}| :next |.x{861}|))
(define-fun .def_388 () Bool (= .def_8 .def_10))
(define-fun .def_392 () Bool (and .def_388 .def_391))
(define-fun .def_60 () (Array Int Int) (! |.x{464}| :next |.x{887}|))
(define-fun .def_58 () (Array Int Int) (! |.x{463}| :next |.x{886}|))
(define-fun .def_387 () Bool (= .def_58 .def_60))
(define-fun .def_393 () Bool (and .def_387 .def_392))
(define-fun .def_14 () Int (! |.x{441}| :next |.x{864}|))
(define-fun .def_12 () Int (! |.x{440}| :next |.x{863}|))
(define-fun .def_386 () Bool (= .def_12 .def_14))
(define-fun .def_394 () Bool (and .def_386 .def_393))
(define-fun .def_30 () Int (! |.x{449}| :next |.x{872}|))
(define-fun .def_28 () Int (! |.x{448}| :next |.x{871}|))
(define-fun .def_385 () Bool (= .def_28 .def_30))
(define-fun .def_395 () Bool (and .def_385 .def_394))
(define-fun .def_36 () Int (! |.x{452}| :next |.x{875}|))
(define-fun .def_34 () Int (! |.x{451}| :next |.x{874}|))
(define-fun .def_384 () Bool (= .def_34 .def_36))
(define-fun .def_396 () Bool (and .def_384 .def_395))
(define-fun .def_26 () Int (! |.x{447}| :next |.x{870}|))
(define-fun .def_24 () Int (! |.x{446}| :next |.x{869}|))
(define-fun .def_383 () Bool (= .def_24 .def_26))
(define-fun .def_397 () Bool (and .def_383 .def_396))
(define-fun .def_84 () Bool (! |.x{476}| :next |.x{821}|))
(define-fun .def_382 () Bool (not .def_84))
(define-fun .def_398 () Bool (and .def_382 .def_397))
(define-fun .def_44 () Int (! |.x{456}| :next |.x{879}|))
(define-fun .def_42 () Int (! |.x{455}| :next |.x{878}|))
(define-fun .def_381 () Bool (= .def_42 .def_44))
(define-fun .def_399 () Bool (and .def_381 .def_398))
(define-fun .def_18 () Int (! |.x{443}| :next |.x{866}|))
(define-fun .def_16 () Int (! |.x{442}| :next |.x{865}|))
(define-fun .def_380 () Bool (= .def_16 .def_18))
(define-fun .def_400 () Bool (and .def_380 .def_399))
(define-fun .def_52 () (Array Int (Array Int Int)) (! |.x{460}| :next |.x{883}|))
(define-fun .def_50 () (Array Int (Array Int Int)) (! |.x{498}| :next |.x{882}|))
(define-fun .def_379 () Bool (= .def_50 .def_52))
(define-fun .def_401 () Bool (and .def_379 .def_400))
(define-fun .def_22 () Int (! |.x{445}| :next |.x{868}|))
(define-fun .def_20 () Int (! |.x{444}| :next |.x{867}|))
(define-fun .def_378 () Bool (= .def_20 .def_22))
(define-fun .def_402 () Bool (and .def_378 .def_401))
(define-fun .def_40 () Int (! |.x{454}| :next |.x{877}|))
(define-fun .def_38 () Int (! |.x{453}| :next |.x{876}|))
(define-fun .def_377 () Bool (= .def_38 .def_40))
(define-fun .def_403 () Bool (and .def_377 .def_402))
(define-fun .def_405 () Bool (! (and .def_403 .def_404) :init true))
(define-fun .def_374 () Bool (= .def_60 |.x{887}|))
(define-fun .def_372 () Bool (= .def_56 |.x{885}|))
(define-fun .def_370 () Bool (= .def_52 |.x{883}|))
(define-fun .def_368 () Bool (= .def_48 |.x{881}|))
(define-fun .def_366 () Bool (= .def_44 |.x{879}|))
(define-fun .def_364 () Bool (= .def_40 |.x{877}|))
(define-fun .def_362 () Bool (= .def_36 |.x{875}|))
(define-fun .def_32 () Int (! |.x{450}| :next |.x{873}|))
(define-fun .def_360 () Bool (= .def_32 |.x{873}|))
(define-fun .def_358 () Bool (= .def_30 |.x{872}|))
(define-fun .def_356 () Bool (= .def_26 |.x{870}|))
(define-fun .def_354 () Bool (= .def_22 |.x{868}|))
(define-fun .def_352 () Bool (= .def_18 |.x{866}|))
(define-fun .def_350 () Bool (= .def_10 |.x{862}|))
(define-fun .def_349 () Bool (= .def_14 |.x{864}|))
(define-fun .def_351 () Bool (and .def_349 .def_350))
(define-fun .def_353 () Bool (and .def_351 .def_352))
(define-fun .def_355 () Bool (and .def_353 .def_354))
(define-fun .def_357 () Bool (and .def_355 .def_356))
(define-fun .def_359 () Bool (and .def_357 .def_358))
(define-fun .def_361 () Bool (and .def_359 .def_360))
(define-fun .def_363 () Bool (and .def_361 .def_362))
(define-fun .def_365 () Bool (and .def_363 .def_364))
(define-fun .def_367 () Bool (and .def_365 .def_366))
(define-fun .def_369 () Bool (and .def_367 .def_368))
(define-fun .def_371 () Bool (and .def_369 .def_370))
(define-fun .def_373 () Bool (and .def_371 .def_372))
(define-fun .def_375 () Bool (and .def_373 .def_374))
(define-fun .def_345 () Bool (= .def_58 |.x{886}|))
(define-fun .def_343 () Bool (= .def_54 |.x{884}|))
(define-fun .def_341 () Bool (= .def_46 |.x{880}|))
(define-fun .def_232 () Bool (= |.x{625}| 0))
(define-fun .def_329 () Bool (not .def_232))
(define-fun .def_224 () Bool (= |.x{861}| |.x{874}|))
(define-fun .def_330 () Bool (and .def_224 .def_329))
(define-fun .def_223 () Bool (= |.x{871}| |.x{876}|))
(define-fun .def_331 () Bool (and .def_223 .def_330))
(define-fun .def_332 () Bool (or .def_84 .def_331))
(define-fun .def_78 () Int (! |.x{473}| :next |.x{896}|))
(define-fun .def_126 () Bool (= .def_78 |.x{896}|))
(define-fun .def_278 () Bool (and |.x{821}| .def_126))
(define-fun .def_327 () Bool (and |.x{821}| .def_278))
(define-fun .def_62 () Int (! |.x{465}| :next |.x{888}|))
(define-fun .def_288 () (Array Int Int) (select .def_50 .def_12))
(define-fun .def_289 () (Array Int Int) (store .def_288 .def_54 .def_62))
(define-fun .def_290 () (Array Int (Array Int Int)) (store .def_50 .def_12 .def_289))
(define-fun .def_291 () Bool (= |.x{882}| .def_290))
(define-fun .def_286 () Bool (<= .def_62 2147483647))
(define-fun .def_283 () Bool (<= (- 2147483648) .def_62))
(define-fun .def_279 () (Array Int Int) (select |.x{882}| .def_12))
(define-fun .def_280 () Int (select .def_279 .def_54))
(define-fun .def_281 () Bool (= |.x{625}| .def_280))
(define-fun .def_284 () Bool (and .def_281 .def_283))
(define-fun .def_287 () Bool (and .def_284 .def_286))
(define-fun .def_292 () Bool (and .def_287 .def_291))
(define-fun .def_293 () Bool (or .def_84 .def_292))
(define-fun .def_328 () Bool (and .def_293 .def_327))
(define-fun .def_333 () Bool (and .def_328 .def_332))
(define-fun .def_334 () Bool (and .def_86 .def_333))
(define-fun .def_335 () Bool (and .def_183 .def_334))
(define-fun .def_68 () Int (! |.x{468}| :next |.x{891}|))
(define-fun .def_324 () Bool (= .def_68 |.x{896}|))
(define-fun .def_325 () Bool (or .def_84 .def_324))
(define-fun .def_322 () Bool (= .def_50 |.x{882}|))
(define-fun .def_74 () Int (! |.x{510}| :next |.x{894}|))
(define-fun .def_320 () Bool (= .def_74 |.x{894}|))
(define-fun .def_76 () Int (! |.x{511}| :next |.x{895}|))
(define-fun .def_318 () Bool (= .def_76 |.x{895}|))
(define-fun .def_316 () Bool (and .def_88 .def_186))
(define-fun .def_188 () Bool (= .def_84 |.x{821}|))
(define-fun .def_317 () Bool (and .def_188 .def_316))
(define-fun .def_319 () Bool (and .def_317 .def_318))
(define-fun .def_321 () Bool (and .def_319 .def_320))
(define-fun .def_323 () Bool (and .def_321 .def_322))
(define-fun .def_326 () Bool (and .def_323 .def_325))
(define-fun .def_336 () Bool (or .def_326 .def_335))
(define-fun .def_313 () Bool (= .def_68 |.x{891}|))
(define-fun .def_314 () Bool (and |.loc{5}| .def_313))
(define-fun .def_315 () Bool (and |.loc{5}| .def_314))
(define-fun .def_337 () Bool (and .def_315 .def_336))
(define-fun .def_308 () Bool (not .def_223))
(define-fun .def_306 () Bool (not .def_224))
(define-fun .def_307 () Bool (or .def_232 .def_306))
(define-fun .def_309 () Bool (or .def_307 .def_308))
(define-fun .def_305 () Bool (= |.x{891}| 0))
(define-fun .def_310 () Bool (and .def_305 .def_309))
(define-fun .def_311 () Bool (or |.x{821}| .def_310))
(define-fun .def_300 () Bool (and .def_126 .def_293))
(define-fun .def_301 () Bool (and .def_86 .def_300))
(define-fun .def_302 () Bool (and .def_183 .def_301))
(define-fun .def_303 () Bool (and .def_188 .def_302))
(define-fun .def_298 () Bool (not |.loc{5}|))
(define-fun .def_304 () Bool (and .def_298 .def_303))
(define-fun .def_312 () Bool (and .def_304 .def_311))
(define-fun .def_338 () Bool (or .def_312 .def_337))
(define-fun .def_294 () Bool (and .def_278 .def_293))
(define-fun .def_295 () Bool (and .def_86 .def_294))
(define-fun .def_296 () Bool (and .def_183 .def_295))
(define-fun .def_297 () Bool (and .def_84 .def_296))
(define-fun .def_299 () Bool (and .def_297 .def_298))
(define-fun .def_339 () Bool (or .def_299 .def_338))
(define-fun .def_276 () Bool (= .def_42 |.x{878}|))
(define-fun .def_274 () Bool (= .def_38 |.x{876}|))
(define-fun .def_272 () Bool (= .def_34 |.x{874}|))
(define-fun .def_270 () Bool (= .def_28 |.x{871}|))
(define-fun .def_267 () Bool (= .def_24 |.x{869}|))
(define-fun .def_265 () Bool (= .def_20 |.x{867}|))
(define-fun .def_263 () Bool (= .def_16 |.x{865}|))
(define-fun .def_261 () Bool (= .def_12 |.x{863}|))
(define-fun .def_259 () Bool (= .def_8 |.x{861}|))
(define-fun .def_82 () Int (! |.x{475}| :next |.x{898}|))
(define-fun .def_257 () Bool (= .def_82 |.x{898}|))
(define-fun .def_80 () Int (! |.x{474}| :next |.x{897}|))
(define-fun .def_255 () Bool (= .def_80 |.x{897}|))
(define-fun .def_72 () Int (! |.x{470}| :next |.x{893}|))
(define-fun .def_253 () Bool (= .def_72 |.x{893}|))
(define-fun .def_70 () Int (! |.x{469}| :next |.x{892}|))
(define-fun .def_251 () Bool (= .def_70 |.x{892}|))
(define-fun .def_66 () Int (! |.x{467}| :next |.x{890}|))
(define-fun .def_249 () Bool (= .def_66 |.x{890}|))
(define-fun .def_247 () Bool (= .def_62 |.x{888}|))
(define-fun .def_64 () Int (! |.x{466}| :next |.x{889}|))
(define-fun .def_246 () Bool (= .def_64 |.x{889}|))
(define-fun .def_248 () Bool (and .def_246 .def_247))
(define-fun .def_250 () Bool (and .def_248 .def_249))
(define-fun .def_252 () Bool (and .def_250 .def_251))
(define-fun .def_254 () Bool (and .def_252 .def_253))
(define-fun .def_256 () Bool (and .def_254 .def_255))
(define-fun .def_258 () Bool (and .def_256 .def_257))
(define-fun .def_260 () Bool (and .def_258 .def_259))
(define-fun .def_262 () Bool (and .def_260 .def_261))
(define-fun .def_264 () Bool (and .def_262 .def_263))
(define-fun .def_266 () Bool (and .def_264 .def_265))
(define-fun .def_268 () Bool (and .def_266 .def_267))
(define-fun .def_269 () Bool (and |.loc{6}| .def_268))
(define-fun .def_271 () Bool (and .def_269 .def_270))
(define-fun .def_273 () Bool (and .def_271 .def_272))
(define-fun .def_275 () Bool (and .def_273 .def_274))
(define-fun .def_277 () Bool (and .def_275 .def_276))
(define-fun .def_340 () Bool (and .def_277 .def_339))
(define-fun .def_342 () Bool (and .def_340 .def_341))
(define-fun .def_344 () Bool (and .def_342 .def_343))
(define-fun .def_346 () Bool (and .def_344 .def_345))
(define-fun .def_147 () Bool (= |.x{155}| 0))
(define-fun .def_143 () Bool (= |.x{160}| 0))
(define-fun .def_140 () Bool (<= .def_32 |.x{867}|))
(define-fun .def_141 () Bool (not .def_140))
(define-fun .def_144 () Bool (and .def_141 .def_143))
(define-fun .def_137 () (Array Int Int) (store .def_58 |.x{863}| 4))
(define-fun .def_138 () (Array Int Int) (store .def_137 |.x{867}| 4))
(define-fun .def_139 () Bool (= |.x{886}| .def_138))
(define-fun .def_145 () Bool (and .def_139 .def_144))
(define-fun .def_148 () Bool (and .def_145 .def_147))
(define-fun .def_93 () (Array Int Int) (select .def_50 |.x{867}|))
(define-fun .def_135 () Int (select .def_93 |.x{878}|))
(define-fun .def_136 () Bool (= .def_135 0))
(define-fun .def_149 () Bool (and .def_136 .def_148))
(define-fun .def_134 () Bool (= |.x{869}| 0))
(define-fun .def_150 () Bool (and .def_134 .def_149))
(define-fun .def_130 () (Array Int Int) (store .def_46 0 0))
(define-fun .def_131 () (Array Int Int) (store .def_130 |.x{863}| 1))
(define-fun .def_132 () (Array Int Int) (store .def_131 |.x{867}| 1))
(define-fun .def_133 () Bool (= |.x{880}| .def_132))
(define-fun .def_151 () Bool (and .def_133 .def_150))
(define-fun .def_233 () Bool (and .def_151 .def_232))
(define-fun .def_153 () Bool (<= .def_32 |.x{863}|))
(define-fun .def_154 () Bool (not .def_153))
(define-fun .def_234 () Bool (and .def_154 .def_233))
(define-fun .def_156 () Bool (= |.x{884}| 0))
(define-fun .def_235 () Bool (and .def_156 .def_234))
(define-fun .def_158 () (Array Int Int) (select .def_50 |.x{863}|))
(define-fun .def_159 () Int (select .def_158 |.x{884}|))
(define-fun .def_160 () Bool (= .def_159 0))
(define-fun .def_236 () Bool (and .def_160 .def_235))
(define-fun .def_162 () Bool (= |.x{867}| 0))
(define-fun .def_163 () Bool (not .def_162))
(define-fun .def_237 () Bool (and .def_163 .def_236))
(define-fun .def_165 () Bool (= |.x{865}| 0))
(define-fun .def_238 () Bool (and .def_165 .def_237))
(define-fun .def_167 () Int (select .def_130 |.x{863}|))
(define-fun .def_168 () Bool (= .def_167 0))
(define-fun .def_239 () Bool (and .def_168 .def_238))
(define-fun .def_170 () Bool (= |.x{878}| 0))
(define-fun .def_240 () Bool (and .def_170 .def_239))
(define-fun .def_172 () Bool (= |.x{863}| 0))
(define-fun .def_173 () Bool (not .def_172))
(define-fun .def_241 () Bool (and .def_173 .def_240))
(define-fun .def_176 () Bool (= |.x{158}| 0))
(define-fun .def_242 () Bool (and .def_176 .def_241))
(define-fun .def_178 () Int (select .def_131 |.x{867}|))
(define-fun .def_179 () Bool (= .def_178 0))
(define-fun .def_243 () Bool (and .def_179 .def_242))
(define-fun .def_244 () Bool (or .def_84 .def_243))
(define-fun .def_227 () Bool (= |.x{888}| |.x{889}|))
(define-fun .def_225 () Bool (and .def_223 .def_224))
(define-fun .def_193 () Bool (= |.x{889}| 1))
(define-fun .def_226 () Bool (and .def_193 .def_225))
(define-fun .def_228 () Bool (and .def_226 .def_227))
(define-fun .def_229 () Bool (or |.x{821}| .def_228))
(define-fun .def_213 () Bool (= |.x{884}| |.x{257}|))
(define-fun .def_202 () (Array Int Int) (select |.x{882}| |.x{247}|))
(define-fun .def_203 () Int (select .def_202 |.x{257}|))
(define-fun .def_204 () Int (* (- 1) .def_203))
(define-fun .def_112 () (Array Int Int) (select |.x{882}| |.x{863}|))
(define-fun .def_113 () Int (select .def_112 |.x{884}|))
(define-fun .def_208 () Int (+ .def_113 .def_204))
(define-fun .def_108 () (Array Int Int) (select |.x{882}| |.x{874}|))
(define-fun .def_109 () Int (select .def_108 |.x{876}|))
(define-fun .def_110 () Int (* (- 1) .def_109))
(define-fun .def_209 () Int (+ .def_110 .def_208))
(define-fun .def_210 () Int (+ |.x{889}| .def_209))
(define-fun .def_211 () Bool (= .def_210 0))
(define-fun .def_198 () Bool (= |.x{863}| |.x{247}|))
(define-fun .def_94 () (Array Int Int) (store .def_93 |.x{878}| 1))
(define-fun .def_95 () (Array Int (Array Int Int)) (store .def_50 |.x{867}| .def_94))
(define-fun .def_96 () (Array Int Int) (select .def_95 |.x{863}|))
(define-fun .def_97 () (Array Int Int) (store .def_96 |.x{884}| 4))
(define-fun .def_98 () (Array Int (Array Int Int)) (store .def_95 |.x{863}| .def_97))
(define-fun .def_99 () Bool (= |.x{882}| .def_98))
(define-fun .def_199 () Bool (and .def_99 .def_198))
(define-fun .def_101 () Bool (= |.x{876}| |.x{878}|))
(define-fun .def_200 () Bool (and .def_101 .def_199))
(define-fun .def_212 () Bool (and .def_200 .def_211))
(define-fun .def_214 () Bool (and .def_212 .def_213))
(define-fun .def_123 () Bool (= |.x{867}| |.x{874}|))
(define-fun .def_215 () Bool (and .def_123 .def_214))
(define-fun .def_216 () Bool (or |.x{821}| .def_215))
(define-fun .def_217 () Bool (and .def_126 .def_216))
(define-fun .def_218 () Bool (and .def_183 .def_217))
(define-fun .def_219 () Bool (and |.loc{5}| .def_218))
(define-fun .def_220 () Bool (and .def_186 .def_219))
(define-fun .def_221 () Bool (and .def_188 .def_220))
(define-fun .def_190 () Bool (not |.loc{6}|))
(define-fun .def_222 () Bool (and .def_190 .def_221))
(define-fun .def_230 () Bool (and .def_222 .def_229))
(define-fun .def_245 () Bool (and .def_230 .def_244))
(define-fun .def_347 () Bool (or .def_245 .def_346))
(define-fun .def_194 () Bool (not .def_193))
(define-fun .def_192 () Bool (= |.x{888}| 0))
(define-fun .def_195 () Bool (and .def_192 .def_194))
(define-fun .def_196 () Bool (or |.x{821}| .def_195))
(define-fun .def_129 () Bool (= |.x{247}| 0))
(define-fun .def_152 () Bool (and .def_129 .def_151))
(define-fun .def_155 () Bool (and .def_152 .def_154))
(define-fun .def_157 () Bool (and .def_155 .def_156))
(define-fun .def_161 () Bool (and .def_157 .def_160))
(define-fun .def_164 () Bool (and .def_161 .def_163))
(define-fun .def_166 () Bool (and .def_164 .def_165))
(define-fun .def_169 () Bool (and .def_166 .def_168))
(define-fun .def_171 () Bool (and .def_169 .def_170))
(define-fun .def_174 () Bool (and .def_171 .def_173))
(define-fun .def_177 () Bool (and .def_174 .def_176))
(define-fun .def_180 () Bool (and .def_177 .def_179))
(define-fun .def_181 () Bool (or .def_84 .def_180))
(define-fun .def_121 () Bool (= |.x{871}| |.x{884}|))
(define-fun .def_116 () Int (+ .def_110 .def_113))
(define-fun .def_104 () (Array Int Int) (select |.x{882}| |.x{861}|))
(define-fun .def_105 () Int (select .def_104 |.x{871}|))
(define-fun .def_107 () Int (* (- 1) .def_105))
(define-fun .def_117 () Int (+ .def_107 .def_116))
(define-fun .def_118 () Int (+ |.x{889}| .def_117))
(define-fun .def_119 () Bool (= .def_118 0))
(define-fun .def_90 () Bool (= |.x{861}| |.x{863}|))
(define-fun .def_100 () Bool (and .def_90 .def_99))
(define-fun .def_102 () Bool (and .def_100 .def_101))
(define-fun .def_120 () Bool (and .def_102 .def_119))
(define-fun .def_122 () Bool (and .def_120 .def_121))
(define-fun .def_124 () Bool (and .def_122 .def_123))
(define-fun .def_125 () Bool (or |.x{821}| .def_124))
(define-fun .def_127 () Bool (and .def_125 .def_126))
(define-fun .def_182 () Bool (and .def_127 .def_181))
(define-fun .def_184 () Bool (and .def_182 .def_183))
(define-fun .def_185 () Bool (and |.loc{5}| .def_184))
(define-fun .def_187 () Bool (and .def_185 .def_186))
(define-fun .def_189 () Bool (and .def_187 .def_188))
(define-fun .def_191 () Bool (and .def_189 .def_190))
(define-fun .def_197 () Bool (and .def_191 .def_196))
(define-fun .def_348 () Bool (or .def_197 .def_347))
(define-fun .def_376 () Bool (! (and .def_348 .def_375) :trans true))
(define-fun .def_406 () Bool (and .def_86 .def_88))
(define-fun .def_407 () Bool (and .def_84 .def_406))
(define-fun .def_408 () Bool (! (not .def_407) :invar-property 0))
(assert true)
